p wcnf 120 1200
7 -118 -119 0
7 -117 120 0
3 -116 120 0
8 -114 120 0
8 -113 117 0
7 -112 120 0
3 -111 -119 0
3 -111 116 0
5 -110 -119 0
8 -110 -116 0
7 -108 -113 0
8 -108 113 0
8 -105 115 0
3 -104 115 0
2 -104 120 0
2 -103 -111 0
6 -103 -110 0
3 -103 118 0
10 -102 -105 0
5 -101 -116 0
8 -101 -107 0
7 -101 -102 0
3 -101 108 0
9 -101 112 0
5 -101 120 0
6 -100 -120 0
8 -100 -117 0
6 -100 103 0
3 -99 -120 0
7 -99 -119 0
7 -99 -107 0
9 -99 112 0
5 -98 -118 0
8 -98 -117 0
7 -98 116 0
3 -97 105 0
6 -97 106 0
9 -97 111 0
5 -97 118 0
9 -96 -118 0
7 -96 -115 0
2 -96 -104 0
7 -96 108 0
5 -96 112 0
3 -95 -101 0
9 -95 111 0
6 -94 -107 0
8 -93 -118 0
2 -92 -95 0
6 -92 -93 0
3 -91 -105 0
9 -91 119 0
3 -90 118 0
6 -88 -110 0
7 -88 -97 0
7 -88 99 0
2 -88 105 0
5 -88 112 0
3 -88 119 0
4 -87 -111 0
2 -87 -102 0
9 -87 95 0
3 -85 -102 0
6 -84 -87 0
7 -83 -86 0
9 -83 88 0
8 -81 -112 0
3 -81 -104 0
9 -81 -92 0
3 -81 85 0
2 -81 95 0
6 -81 113 0
3 -80 -100 0
8 -80 -93 0
10 -79 -84 0
6 -79 -81 0
7 -79 85 0
6 -79 91 0
3 -79 106 0
8 -78 -113 0
1 -78 -88 0
6 -78 -87 0
6 -78 -79 0
3 -78 88 0
1 -77 -89 0
4 -77 -84 0
9 -77 80 0
2 -77 97 0
8 -76 -114 0
2 -76 -96 0
5 -76 97 0
9 -76 110 0
10 -75 -119 0
8 -75 -109 0
5 -75 -108 0
7 -75 -79 0
7 -75 -76 0
3 -75 78 0
9 -75 90 0
6 -75 104 0
5 -74 -111 0
10 -74 110 0
1 -74 112 0
7 -74 116 0
8 -73 -97 0
1 -72 -114 0
3 -72 -105 0
5 -72 -84 0
6 -72 -81 0
5 -72 79 0
3 -72 94 0
6 -72 118 0
10 -71 86 0
8 -71 120 0
8 -70 -103 0
10 -70 -93 0
2 -70 -92 0
7 -70 -74 0
2 -70 81 0
9 -70 82 0
8 -69 -94 0
6 -69 -88 0
8 -69 72 0
8 -69 76 0
4 -68 80 0
4 -68 82 0
5 -68 102 0
1 -68 111 0
6 -68 117 0
4 -67 -119 0
6 -67 -104 0
1 -67 -95 0
3 -67 77 0
6 -67 101 0
8 -67 103 0
2 -66 -103 0
6 -66 -84 0
9 -66 -78 0
6 -66 74 0
2 -66 112 0
5 -66 115 0
8 -65 -117 0
8 -65 73 0
4 -65 76 0
6 -65 87 0
6 -65 91 0
4 -65 103 0
7 -65 120 0
4 -64 -67 0
5 -64 74 0
6 -63 -116 0
2 -63 -92 0
1 -63 -91 0
4 -63 -89 0
8 -63 -73 0
4 -63 -72 0
7 -63 67 0
3 -63 77 0
4 -63 120 0
3 -62 -104 0
6 -62 -102 0
9 -62 -73 0
4 -62 72 0
8 -62 87 0
5 -62 89 0
1 -61 -116 0
9 -61 -97 0
2 -61 -95 0
10 -61 -75 0
5 -61 65 0
3 -61 75 0
4 -61 98 0
3 -60 -98 0
10 -60 79 0
8 -60 98 0
8 -60 109 0
6 -59 -111 0
2 -59 -80 0
5 -59 -78 0
9 -59 -75 0
6 -59 66 0
1 -59 69 0
10 -59 113 0
6 -58 -106 0
5 -58 91 0
8 -58 101 0
10 -57 -104 0
2 -57 -75 0
1 -57 -63 0
4 -57 -60 0
4 -57 71 0
6 -57 73 0
3 -57 109 0
7 -57 112 0
4 -56 -94 0
7 -56 -90 0
7 -55 -110 0
3 -55 -57 0
8 -54 -107 0
7 -54 -103 0
7 -54 -89 0
10 -54 -74 0
1 -54 -64 0
9 -54 75 0
10 -54 81 0
8 -54 93 0
7 -54 119 0
6 -53 -99 0
8 -53 -72 0
2 -53 60 0
5 -52 -98 0
4 -52 -69 0
2 -52 -66 0
4 -52 -57 0
10 -52 54 0
6 -52 79 0
3 -52 90 0
9 -51 -110 0
7 -51 102 0
3 -50 -117 0
3 -50 -92 0
1 -50 -64 0
8 -50 -61 0
5 -49 -107 0
7 -49 -75 0
2 -49 -62 0
2 -49 -51 0
5 -49 68 0
4 -49 72 0
9 -48 -112 0
2 -48 -110 0
1 -48 -74 0
8 -48 51 0
2 -48 66 0
9 -48 118 0
8 -47 -84 0
8 -47 -75 0
6 -47 93 0
4 -47 105 0
7 -47 108 0
7 -46 -86 0
7 -46 -79 0
1 -46 78 0
8 -46 114 0
2 -45 53 0
10 -45 60 0
4 -44 -117 0
4 -44 -107 0
9 -44 -94 0
1 -44 -86 0
6 -44 80 0
2 -44 83 0
1 -43 -100 0
4 -43 -87 0
6 -42 -115 0
8 -42 -112 0
5 -42 -103 0
7 -42 -95 0
3 -42 -78 0
8 -42 66 0
6 -42 120 0
3 -41 -65 0
8 -41 79 0
4 -41 82 0
4 -41 91 0
7 -40 -120 0
2 -40 -100 0
2 -40 -87 0
3 -40 41 0
5 -40 46 0
8 -40 87 0
9 -39 -117 0
2 -39 -111 0
8 -39 -96 0
7 -39 -77 0
3 -39 -63 0
8 -39 -58 0
1 -39 51 0
5 -39 70 0
7 -39 77 0
1 -39 88 0
10 -39 97 0
8 -39 111 0
2 -38 -88 0
4 -38 -51 0
4 -38 -39 0
8 -38 69 0
7 -38 71 0
9 -38 85 0
10 -38 110 0
5 -38 118 0
5 -37 -112 0
3 -37 -110 0
4 -37 -108 0
8 -37 -95 0
6 -37 -91 0
10 -37 -83 0
9 -37 -55 0
7 -37 71 0
3 -36 -98 0
4 -36 -48 0
5 -36 79 0
2 -36 103 0
5 -35 -106 0
4 -35 -71 0
8 -35 -48 0
6 -35 -40 0
2 -35 37 0
8 -35 47 0
2 -35 53 0
8 -35 114 0
8 -34 -74 0
2 -34 -61 0
6 -34 -40 0
8 -34 86 0
4 -33 -113 0
9 -33 -112 0
7 -33 -92 0
2 -33 -84 0
8 -33 -77 0
7 -33 74 0
6 -33 105 0
3 -32 -118 0
9 -32 -100 0
9 -32 -46 0
1 -32 -43 0
5 -32 -36 0
9 -32 33 0
9 -32 69 0
2 -32 95 0
2 -32 99 0
3 -32 116 0
6 -32 120 0
2 -31 -39 0
6 -31 -33 0
9 -31 65 0
9 -31 109 0
3 -30 -103 0
1 -30 -83 0
6 -30 -73 0
3 -30 -64 0
8 -30 -62 0
4 -30 -51 0
4 -30 41 0
4 -30 55 0
2 -29 -92 0
7 -29 -77 0
3 -29 39 0
8 -29 43 0
8 -29 93 0
10 -29 97 0
5 -29 106 0
4 -29 115 0
3 -29 120 0
3 -28 -30 0
3 -28 39 0
3 -28 56 0
7 -28 72 0
2 -27 -110 0
3 -27 -70 0
8 -27 -69 0
3 -27 34 0
4 -27 47 0
4 -27 70 0
4 -27 95 0
10 -27 102 0
3 -27 108 0
3 -26 -108 0
3 -26 -64 0
3 -26 -48 0
8 -26 -27 0
5 -26 56 0
1 -26 85 0
3 -26 86 0
8 -26 87 0
4 -26 104 0
4 -25 -119 0
6 -25 -68 0
6 -25 -57 0
2 -25 -43 0
4 -25 27 0
6 -25 37 0
6 -25 46 0
7 -25 49 0
8 -25 94 0
8 -25 97 0
9 -25 98 0
1 -24 -111 0
5 -24 -108 0
1 -24 -75 0
3 -24 -68 0
3 -24 -55 0
3 -24 -30 0
6 -24 28 0
5 -24 30 0
6 -24 63 0
6 -24 65 0
7 -24 110 0
8 -23 -104 0
7 -23 -102 0
9 -23 -95 0
6 -23 -91 0
2 -23 -69 0
9 -23 -67 0
8 -23 -61 0
9 -23 42 0
4 -23 71 0
2 -23 102 0
5 -23 109 0
9 -22 -118 0
3 -22 -117 0
8 -22 -79 0
5 -22 -53 0
8 -22 111 0
5 -22 113 0
3 -22 117 0
6 -21 -61 0
4 -21 -53 0
3 -21 57 0
1 -21 58 0
4 -21 62 0
4 -21 73 0
3 -21 77 0
6 -21 103 0
9 -20 -112 0
7 -20 -26 0
2 -20 40 0
5 -20 55 0
4 -20 58 0
9 -20 75 0
2 -19 -114 0
3 -19 -107 0
5 -19 -97 0
3 -19 -76 0
3 -19 -60 0
2 -19 -32 0
3 -19 21 0
5 -19 39 0
3 -19 86 0
7 -19 99 0
4 -19 109 0
5 -19 119 0
5 -18 -119 0
8 -18 -87 0
3 -18 -82 0
8 -18 19 0
1 -18 21 0
8 -18 34 0
2 -18 64 0
3 -18 84 0
9 -17 -110 0
5 -17 -66 0
6 -17 -46 0
1 -17 -42 0
1 -17 -38 0
5 -17 -36 0
8 -17 33 0
2 -17 45 0
9 -17 58 0
2 -17 113 0
9 -16 -114 0
2 -16 -108 0
4 -16 -94 0
4 -16 -45 0
4 -16 -27 0
6 -16 20 0
5 -16 77 0
6 -16 83 0
2 -16 108 0
8 -16 120 0
3 -15 -116 0
5 -15 -76 0
3 -15 -67 0
6 -15 -62 0
4 -15 19 0
5 -15 41 0
4 -15 54 0
4 -15 110 0
3 -15 114 0
6 -14 -105 0
6 -14 -99 0
2 -14 -63 0
10 -14 -62 0
2 -14 -35 0
2 -14 -32 0
1 -14 -29 0
6 -14 24 0
9 -14 41 0
2 -14 48 0
6 -14 66 0
10 -14 73 0
2 -14 99 0
6 -14 102 0
4 -14 103 0
5 -13 -100 0
9 -13 -96 0
9 -13 -35 0
9 -13 -28 0
5 -13 53 0
1 -13 68 0
7 -13 87 0
7 -13 112 0
5 -12 -73 0
9 -12 -23 0
3 -12 49 0
8 -12 54 0
3 -12 84 0
6 -12 85 0
1 -12 99 0
6 -12 101 0
2 -11 -113 0
6 -11 -55 0
6 -11 -26 0
2 -11 -14 0
7 -11 15 0
7 -11 28 0
2 -11 57 0
3 -11 66 0
6 -11 79 0
3 -11 116 0
8 -10 -111 0
6 -10 -109 0
3 -10 -66 0
4 -10 -63 0
9 -10 -61 0
7 -10 -15 0
3 -10 -13 0
9 -10 62 0
6 -10 110 0
8 -10 114 0
9 -9 -119 0
3 -9 -118 0
4 -9 -78 0
4 -9 -73 0
2 -9 -62 0
6 -9 -50 0
1 -9 -39 0
4 -9 -37 0
2 -9 -12 0
2 -9 54 0
9 -9 63 0
3 -9 80 0
7 -9 96 0
5 -9 100 0
4 -9 109 0
4 -8 -119 0
2 -8 -82 0
5 -8 -43 0
6 -8 21 0
7 -8 47 0
7 -8 62 0
4 -8 90 0
3 -8 103 0
9 -8 117 0
7 -7 -97 0
2 -7 -85 0
6 -7 -53 0
9 -7 19 0
10 -7 30 0
3 -7 36 0
7 -7 38 0
8 -7 76 0
5 -7 100 0
1 -7 110 0
2 -6 -110 0
5 -6 -84 0
6 -6 -66 0
2 -6 -39 0
8 -6 77 0
8 -6 83 0
3 -6 101 0
7 -5 -36 0
10 -5 41 0
9 -5 74 0
2 -5 82 0
4 -4 -92 0
3 -4 -78 0
3 -4 -76 0
8 -4 -46 0
8 -4 -43 0
9 -4 -10 0
5 -4 -6 0
1 -4 6 0
2 -4 7 0
4 -4 32 0
7 -4 47 0
3 -4 72 0
9 -4 98 0
6 -3 -94 0
3 -3 -72 0
2 -3 -68 0
3 -3 -56 0
1 -3 -43 0
5 -3 -35 0
3 -3 -34 0
2 -3 -22 0
10 -3 -19 0
8 -3 7 0
4 -3 35 0
8 -3 43 0
6 -3 47 0
6 -2 -67 0
4 -2 -41 0
6 -2 -12 0
5 -2 -8 0
5 -2 20 0
9 -2 29 0
7 -2 41 0
7 -2 54 0
7 -2 75 0
5 -2 77 0
5 -2 100 0
1 -2 103 0
5 -1 -10 0
6 -1 -6 0
4 -1 15 0
2 -1 71 0
9 -1 93 0
4 1 -115 0
7 1 -96 0
1 1 -72 0
5 1 -48 0
9 1 -38 0
2 1 -29 0
9 1 23 0
2 1 37 0
3 1 97 0
9 1 116 0
10 2 -75 0
6 2 -27 0
6 2 -25 0
5 2 5 0
2 2 14 0
10 2 15 0
1 2 25 0
6 2 47 0
5 2 58 0
9 2 84 0
3 3 -119 0
1 3 -63 0
6 3 -60 0
6 3 28 0
6 3 54 0
6 3 69 0
10 3 90 0
2 3 98 0
9 3 100 0
2 3 109 0
10 4 -114 0
3 4 -102 0
8 4 -97 0
10 4 -72 0
7 4 -66 0
8 4 -48 0
2 4 -45 0
6 4 -41 0
9 4 15 0
4 4 18 0
5 4 28 0
9 4 32 0
8 4 50 0
1 4 76 0
4 4 104 0
9 5 -100 0
10 5 -94 0
4 5 -65 0
5 5 -56 0
5 5 -51 0
3 5 -50 0
6 5 -21 0
5 5 7 0
8 5 33 0
2 5 54 0
10 5 63 0
4 6 -94 0
2 6 -35 0
2 6 29 0
3 6 34 0
3 6 68 0
1 6 90 0
6 6 97 0
2 7 -118 0
1 7 -77 0
3 7 37 0
8 7 67 0
2 7 105 0
8 8 -9 0
7 8 20 0
5 8 23 0
2 8 95 0
6 8 107 0
3 8 109 0
3 8 114 0
9 8 118 0
2 9 -117 0
2 9 -108 0
3 9 -81 0
5 9 18 0
6 9 77 0
5 9 84 0
2 9 86 0
1 10 -56 0
3 10 -50 0
3 10 -46 0
10 10 -37 0
6 10 -23 0
5 10 12 0
1 10 39 0
8 10 40 0
7 10 52 0
2 10 54 0
4 10 85 0
8 10 90 0
2 10 107 0
6 11 -52 0
6 11 -35 0
3 11 -16 0
3 11 13 0
4 11 31 0
6 11 37 0
5 11 72 0
8 11 85 0
8 11 107 0
6 11 120 0
7 12 -59 0
9 12 21 0
7 12 44 0
9 12 55 0
4 12 58 0
4 12 78 0
4 12 102 0
5 13 -108 0
4 13 -99 0
6 13 -98 0
8 13 -70 0
3 13 -39 0
2 13 -36 0
2 13 -17 0
4 14 -113 0
9 14 -89 0
9 14 -79 0
4 14 -75 0
3 14 -37 0
7 14 -29 0
5 14 23 0
8 14 25 0
3 14 86 0
7 15 -112 0
10 15 -83 0
6 15 -78 0
3 15 -74 0
4 15 -41 0
4 15 -32 0
2 15 -26 0
9 15 -18 0
1 15 17 0
9 15 24 0
7 15 63 0
9 15 65 0
4 15 70 0
9 15 75 0
3 15 95 0
8 15 110 0
3 16 -64 0
9 16 -61 0
5 16 -36 0
5 16 -18 0
10 16 89 0
7 17 -95 0
8 17 -86 0
9 17 -71 0
6 17 -29 0
2 17 35 0
2 17 58 0
2 17 107 0
6 18 -113 0
8 18 -67 0
4 18 102 0
4 19 -108 0
8 19 -93 0
9 19 -81 0
6 19 24 0
2 19 58 0
3 19 59 0
6 19 92 0
2 19 96 0
3 19 107 0
6 20 -73 0
8 20 -58 0
2 20 -56 0
9 20 -30 0
7 20 -25 0
5 20 64 0
7 20 65 0
9 20 67 0
4 21 -80 0
2 21 -31 0
4 21 34 0
3 21 111 0
8 21 119 0
2 22 -108 0
2 22 -86 0
3 22 -71 0
3 22 -45 0
3 22 35 0
5 22 73 0
9 22 76 0
1 22 96 0
8 22 98 0
2 23 -112 0
8 23 -107 0
7 23 -102 0
7 23 -100 0
10 23 -84 0
9 23 -61 0
4 23 -41 0
1 23 39 0
2 23 110 0
9 24 -66 0
8 24 -44 0
3 24 -28 0
7 24 -26 0
5 24 27 0
7 24 90 0
4 24 94 0
4 24 95 0
10 25 -111 0
5 25 -49 0
7 25 -48 0
3 25 31 0
2 25 49 0
8 25 79 0
3 25 91 0
5 26 -84 0
1 26 -83 0
5 26 -69 0
8 26 -39 0
9 26 -34 0
5 26 50 0
6 26 54 0
2 26 57 0
3 26 101 0
3 27 -94 0
8 27 -85 0
3 27 -81 0
1 27 -32 0
2 27 72 0
3 27 78 0
2 28 -109 0
9 28 -105 0
1 28 -78 0
4 28 -43 0
7 28 -38 0
5 28 41 0
2 28 79 0
9 28 92 0
8 28 98 0
1 28 106 0
4 28 115 0
5 28 119 0
3 29 -104 0
6 29 -69 0
3 29 -41 0
5 29 -32 0
9 29 36 0
3 29 43 0
9 29 70 0
8 29 72 0
3 29 86 0
5 30 -111 0
4 30 -98 0
3 30 -94 0
7 30 -93 0
6 30 -61 0
1 30 -33 0
9 30 48 0
6 30 115 0
2 31 -119 0
2 31 -90 0
7 31 -86 0
1 31 77 0
2 31 78 0
2 31 91 0
7 31 117 0
6 32 -105 0
3 32 -79 0
6 32 -40 0
4 32 84 0
3 32 103 0
9 32 104 0
7 32 116 0
5 32 118 0
5 33 -77 0
9 33 -71 0
9 33 -55 0
4 33 53 0
3 33 75 0
8 33 98 0
2 34 -93 0
4 34 -90 0
3 34 -67 0
5 34 -52 0
6 34 -39 0
9 34 84 0
9 34 97 0
6 35 -110 0
7 35 -94 0
5 35 -65 0
7 35 -55 0
8 35 39 0
3 35 40 0
7 35 42 0
9 35 43 0
4 35 82 0
4 35 83 0
5 35 107 0
5 36 -116 0
9 36 -89 0
7 36 -77 0
7 36 -44 0
9 36 -38 0
5 36 49 0
2 36 87 0
3 36 96 0
4 37 -112 0
10 37 -110 0
7 37 57 0
6 37 85 0
8 38 -114 0
7 38 -106 0
9 38 -88 0
1 38 -64 0
2 38 108 0
5 38 113 0
9 38 116 0
1 39 -118 0
1 39 -111 0
6 39 -47 0
6 39 40 0
8 39 57 0
4 39 58 0
8 39 83 0
5 39 119 0
3 39 120 0
2 40 -112 0
8 40 -64 0
7 40 52 0
6 40 101 0
8 40 105 0
4 41 -107 0
3 41 -83 0
6 41 -64 0
8 41 -59 0
4 41 55 0
9 42 -83 0
2 42 -60 0
4 42 -49 0
5 42 -44 0
7 42 70 0
2 42 118 0
3 43 -116 0
5 43 -107 0
3 43 -94 0
4 43 -57 0
9 43 -52 0
2 43 86 0
4 44 -97 0
10 44 -87 0
7 44 -78 0
9 44 -76 0
7 44 -60 0
2 44 -48 0
6 44 52 0
2 44 69 0
4 44 71 0
7 44 90 0
10 44 93 0
10 44 117 0
3 45 -115 0
7 45 -82 0
4 45 -60 0
5 45 73 0
4 45 82 0
1 45 96 0
8 45 104 0
3 45 107 0
2 46 -113 0
2 46 -47 0
7 46 73 0
8 46 104 0
3 47 -103 0
9 47 -89 0
3 47 -78 0
5 47 -58 0
2 47 96 0
3 48 -119 0
5 48 -78 0
5 48 -71 0
3 48 -66 0
2 48 -65 0
4 48 -59 0
9 48 53 0
3 48 61 0
9 48 63 0
2 48 68 0
6 49 -83 0
6 49 -61 0
1 49 -50 0
5 49 66 0
8 49 86 0
8 49 119 0
8 50 -98 0
3 50 -87 0
1 50 -62 0
8 50 60 0
9 50 77 0
3 50 116 0
10 51 -98 0
1 51 -83 0
9 51 -82 0
8 51 74 0
3 51 80 0
7 51 82 0
10 51 106 0
7 52 -101 0
8 52 -88 0
3 52 -55 0
2 52 65 0
3 52 71 0
4 53 -103 0
3 53 -81 0
6 53 -78 0
4 53 -70 0
5 53 60 0
5 53 111 0
4 54 -90 0
1 54 55 0
10 54 85 0
4 55 75 0
5 55 76 0
8 55 88 0
2 55 105 0
3 56 -117 0
9 56 -71 0
2 56 89 0
2 56 106 0
8 56 112 0
4 57 -110 0
1 57 -104 0
9 57 -95 0
3 57 -86 0
8 57 82 0
2 57 114 0
9 58 -113 0
8 58 -91 0
7 58 -87 0
7 58 87 0
10 59 -98 0
9 59 -92 0
10 59 104 0
4 60 -116 0
2 60 -94 0
6 60 -84 0
7 60 -72 0
6 60 90 0
1 60 120 0
10 61 -118 0
6 61 -63 0
10 61 77 0
4 61 78 0
2 61 101 0
7 61 118 0
5 62 -84 0
4 62 81 0
6 62 88 0
7 62 102 0
4 63 -66 0
5 63 70 0
10 63 80 0
5 63 85 0
4 63 91 0
2 63 94 0
3 63 105 0
4 63 106 0
1 63 110 0
10 63 113 0
2 63 119 0
8 63 120 0
9 64 -109 0
9 64 67 0
8 64 72 0
4 65 -100 0
1 65 87 0
4 65 90 0
9 65 110 0
7 66 -103 0
4 66 -87 0
9 66 101 0
3 67 -82 0
4 67 69 0
3 67 84 0
4 67 108 0
10 68 -111 0
8 68 -96 0
7 68 -70 0
6 68 85 0
4 68 91 0
1 68 119 0
1 69 -84 0
4 70 -80 0
5 70 119 0
4 71 -114 0
5 71 -81 0
7 71 77 0
7 71 100 0
6 72 -102 0
6 72 -77 0
8 72 -74 0
4 72 111 0
6 73 -120 0
7 73 96 0
1 74 -95 0
8 74 -89 0
7 74 -77 0
4 74 109 0
8 74 110 0
4 75 -112 0
7 75 -106 0
7 75 84 0
6 76 -79 0
9 76 -78 0
9 76 78 0
9 76 89 0
9 76 105 0
7 77 -116 0
6 77 99 0
6 78 -108 0
1 79 -105 0
6 79 -103 0
6 79 -101 0
4 80 -100 0
1 80 -96 0
9 80 -93 0
9 80 90 0
7 81 -109 0
6 81 99 0
5 81 105 0
3 82 -93 0
4 82 -89 0
7 82 89 0
8 82 115 0
10 82 116 0
8 83 -113 0
7 83 -101 0
7 83 -95 0
2 83 -93 0
5 83 103 0
1 83 112 0
7 83 118 0
1 84 -120 0
6 84 100 0
7 85 91 0
10 85 92 0
5 85 94 0
6 86 -112 0
7 87 -106 0
1 87 -104 0
2 88 -104 0
7 88 89 0
6 88 107 0
7 88 118 0
2 89 -117 0
6 89 -111 0
5 89 -93 0
9 90 99 0
3 91 98 0
1 91 116 0
4 93 -119 0
5 94 -112 0
4 95 -100 0
10 95 107 0
4 97 108 0
4 98 -109 0
8 99 -119 0
9 99 -101 0
10 99 103 0
8 100 -116 0
4 100 105 0
10 101 -118 0
6 103 -112 0
4 103 104 0
6 103 111 0
2 104 105 0
4 106 -120 0
1 107 -117 0
7 107 110 0
1 107 115 0
1 108 111 0
8 110 -120 0
7 116 -117 0
